/* Objective function */
min: +C85 +C86 +C87 +C88 +C89 +C90 +C91 +C92 +C93 +C94 +C95 +C96 +C97 +C98 +C99;

/* Constraints */
+C1 +87 C2 +12 C3 +53 C4 +49 C5 +32 C6 +104 C7 +117 C8 +106 C9 +13 C10 +127 C11 +22 C12 +16 C13 +98 C14 <= 180;
+C15 +87 C16 +12 C17 +53 C18 +49 C19 +32 C20 +104 C21 +117 C22 +106 C23 +13 C24 +127 C25 +22 C26 +16 C27
 +98 C28 <= 180;
+C29 +87 C30 +12 C31 +53 C32 +49 C33 +32 C34 +104 C35 +117 C36 +106 C37 +13 C38 +127 C39 +22 C40 +16 C41
 +98 C42 <= 180;
+C43 +87 C44 +12 C45 +53 C46 +49 C47 +32 C48 +104 C49 +117 C50 +106 C51 +13 C52 +127 C53 +22 C54 +16 C55
 +98 C56 <= 180;
+C57 +87 C58 +12 C59 +53 C60 +49 C61 +32 C62 +104 C63 +117 C64 +106 C65 +13 C66 +127 C67 +22 C68 +16 C69
 +98 C70 <= 180;
+C71 +87 C72 +12 C73 +53 C74 +49 C75 +32 C76 +104 C77 +117 C78 +106 C79 +13 C80 +127 C81 +22 C82 +16 C83
 +98 C84 <= 180;
+31 C1 +25 C2 +92 C3 +66 C4 +165 C5 +51 C6 +176 C7 +23 C8 +75 C9 +39 C10 +157 C11 +C12 +46 C13 +99 C14 <= 194;
+31 C15 +25 C16 +92 C17 +66 C18 +165 C19 +51 C20 +176 C21 +23 C22 +75 C23 +39 C24 +157 C25 +C26 +46 C27
 +99 C28 <= 194;
+31 C29 +25 C30 +92 C31 +66 C32 +165 C33 +51 C34 +176 C35 +23 C36 +75 C37 +39 C38 +157 C39 +C40 +46 C41
 +99 C42 <= 194;
+31 C43 +25 C44 +92 C45 +66 C46 +165 C47 +51 C48 +176 C49 +23 C50 +75 C51 +39 C52 +157 C53 +C54 +46 C55
 +99 C56 <= 194;
+31 C57 +25 C58 +92 C59 +66 C60 +165 C61 +51 C62 +176 C63 +23 C64 +75 C65 +39 C66 +157 C67 +C68 +46 C69
 +99 C70 <= 194;
+31 C71 +25 C72 +92 C73 +66 C74 +165 C75 +51 C76 +176 C77 +23 C78 +75 C79 +39 C80 +157 C81 +C82 +46 C83
 +99 C84 <= 194;
+C1 +C15 +C29 +C43 +C57 +C71 = 1;
+C2 +C16 +C30 +C44 +C58 +C72 = 1;
+C3 +C17 +C31 +C45 +C59 +C73 = 1;
+C4 +C18 +C32 +C46 +C60 +C74 = 1;
+C5 +C19 +C33 +C47 +C61 +C75 = 1;
+C6 +C20 +C34 +C48 +C62 +C76 = 1;
+C7 +C21 +C35 +C49 +C63 +C77 = 1;
+C8 +C22 +C36 +C50 +C64 +C78 = 1;
+C9 +C23 +C37 +C51 +C65 +C79 = 1;
+C10 +C24 +C38 +C52 +C66 +C80 = 1;
+C11 +C25 +C39 +C53 +C67 +C81 = 1;
+C12 +C26 +C40 +C54 +C68 +C82 = 1;
+C13 +C27 +C41 +C55 +C69 +C83 = 1;
+C14 +C28 +C42 +C56 +C70 +C84 = 1;
+31 C1 +25 C2 +92 C3 +66 C4 +165 C5 +51 C6 +176 C7 +23 C8 +75 C9 +39 C10 +157 C11 +C12 +46 C13 +99 C14
 -31 C15 -25 C16 -92 C17 -66 C18 -165 C19 -51 C20 -176 C21 -23 C22 -75 C23 -39 C24 -157 C25 -C26 -46 C27
 -99 C28 -C85 <= 0;
-31 C1 -25 C2 -92 C3 -66 C4 -165 C5 -51 C6 -176 C7 -23 C8 -75 C9 -39 C10 -157 C11 -C12 -46 C13 -99 C14
 +31 C15 +25 C16 +92 C17 +66 C18 +165 C19 +51 C20 +176 C21 +23 C22 +75 C23 +39 C24 +157 C25 +C26 +46 C27
 +99 C28 -C85 <= 0;
+31 C1 +25 C2 +92 C3 +66 C4 +165 C5 +51 C6 +176 C7 +23 C8 +75 C9 +39 C10 +157 C11 +C12 +46 C13 +99 C14
 -31 C29 -25 C30 -92 C31 -66 C32 -165 C33 -51 C34 -176 C35 -23 C36 -75 C37 -39 C38 -157 C39 -C40 -46 C41
 -99 C42 -C86 <= 0;
-31 C1 -25 C2 -92 C3 -66 C4 -165 C5 -51 C6 -176 C7 -23 C8 -75 C9 -39 C10 -157 C11 -C12 -46 C13 -99 C14
 +31 C29 +25 C30 +92 C31 +66 C32 +165 C33 +51 C34 +176 C35 +23 C36 +75 C37 +39 C38 +157 C39 +C40 +46 C41
 +99 C42 -C86 <= 0;
+31 C1 +25 C2 +92 C3 +66 C4 +165 C5 +51 C6 +176 C7 +23 C8 +75 C9 +39 C10 +157 C11 +C12 +46 C13 +99 C14
 -31 C43 -25 C44 -92 C45 -66 C46 -165 C47 -51 C48 -176 C49 -23 C50 -75 C51 -39 C52 -157 C53 -C54 -46 C55
 -99 C56 -C87 <= 0;
-31 C1 -25 C2 -92 C3 -66 C4 -165 C5 -51 C6 -176 C7 -23 C8 -75 C9 -39 C10 -157 C11 -C12 -46 C13 -99 C14
 +31 C43 +25 C44 +92 C45 +66 C46 +165 C47 +51 C48 +176 C49 +23 C50 +75 C51 +39 C52 +157 C53 +C54 +46 C55
 +99 C56 -C87 <= 0;
+31 C1 +25 C2 +92 C3 +66 C4 +165 C5 +51 C6 +176 C7 +23 C8 +75 C9 +39 C10 +157 C11 +C12 +46 C13 +99 C14
 -31 C57 -25 C58 -92 C59 -66 C60 -165 C61 -51 C62 -176 C63 -23 C64 -75 C65 -39 C66 -157 C67 -C68 -46 C69
 -99 C70 -C88 <= 0;
-31 C1 -25 C2 -92 C3 -66 C4 -165 C5 -51 C6 -176 C7 -23 C8 -75 C9 -39 C10 -157 C11 -C12 -46 C13 -99 C14
 +31 C57 +25 C58 +92 C59 +66 C60 +165 C61 +51 C62 +176 C63 +23 C64 +75 C65 +39 C66 +157 C67 +C68 +46 C69
 +99 C70 -C88 <= 0;
+31 C1 +25 C2 +92 C3 +66 C4 +165 C5 +51 C6 +176 C7 +23 C8 +75 C9 +39 C10 +157 C11 +C12 +46 C13 +99 C14
 -31 C71 -25 C72 -92 C73 -66 C74 -165 C75 -51 C76 -176 C77 -23 C78 -75 C79 -39 C80 -157 C81 -C82 -46 C83
 -99 C84 -C89 <= 0;
-31 C1 -25 C2 -92 C3 -66 C4 -165 C5 -51 C6 -176 C7 -23 C8 -75 C9 -39 C10 -157 C11 -C12 -46 C13 -99 C14
 +31 C71 +25 C72 +92 C73 +66 C74 +165 C75 +51 C76 +176 C77 +23 C78 +75 C79 +39 C80 +157 C81 +C82 +46 C83
 +99 C84 -C89 <= 0;
+31 C15 +25 C16 +92 C17 +66 C18 +165 C19 +51 C20 +176 C21 +23 C22 +75 C23 +39 C24 +157 C25 +C26 +46 C27
 +99 C28 -31 C29 -25 C30 -92 C31 -66 C32 -165 C33 -51 C34 -176 C35 -23 C36 -75 C37 -39 C38 -157 C39 -C40
 -46 C41 -99 C42 -C90 <= 0;
-31 C15 -25 C16 -92 C17 -66 C18 -165 C19 -51 C20 -176 C21 -23 C22 -75 C23 -39 C24 -157 C25 -C26 -46 C27
 -99 C28 +31 C29 +25 C30 +92 C31 +66 C32 +165 C33 +51 C34 +176 C35 +23 C36 +75 C37 +39 C38 +157 C39 +C40
 +46 C41 +99 C42 -C90 <= 0;
+31 C15 +25 C16 +92 C17 +66 C18 +165 C19 +51 C20 +176 C21 +23 C22 +75 C23 +39 C24 +157 C25 +C26 +46 C27
 +99 C28 -31 C43 -25 C44 -92 C45 -66 C46 -165 C47 -51 C48 -176 C49 -23 C50 -75 C51 -39 C52 -157 C53 -C54
 -46 C55 -99 C56 -C91 <= 0;
-31 C15 -25 C16 -92 C17 -66 C18 -165 C19 -51 C20 -176 C21 -23 C22 -75 C23 -39 C24 -157 C25 -C26 -46 C27
 -99 C28 +31 C43 +25 C44 +92 C45 +66 C46 +165 C47 +51 C48 +176 C49 +23 C50 +75 C51 +39 C52 +157 C53 +C54
 +46 C55 +99 C56 -C91 <= 0;
+31 C15 +25 C16 +92 C17 +66 C18 +165 C19 +51 C20 +176 C21 +23 C22 +75 C23 +39 C24 +157 C25 +C26 +46 C27
 +99 C28 -31 C57 -25 C58 -92 C59 -66 C60 -165 C61 -51 C62 -176 C63 -23 C64 -75 C65 -39 C66 -157 C67 -C68
 -46 C69 -99 C70 -C92 <= 0;
-31 C15 -25 C16 -92 C17 -66 C18 -165 C19 -51 C20 -176 C21 -23 C22 -75 C23 -39 C24 -157 C25 -C26 -46 C27
 -99 C28 +31 C57 +25 C58 +92 C59 +66 C60 +165 C61 +51 C62 +176 C63 +23 C64 +75 C65 +39 C66 +157 C67 +C68
 +46 C69 +99 C70 -C92 <= 0;
+31 C15 +25 C16 +92 C17 +66 C18 +165 C19 +51 C20 +176 C21 +23 C22 +75 C23 +39 C24 +157 C25 +C26 +46 C27
 +99 C28 -31 C71 -25 C72 -92 C73 -66 C74 -165 C75 -51 C76 -176 C77 -23 C78 -75 C79 -39 C80 -157 C81 -C82
 -46 C83 -99 C84 -C93 <= 0;
-31 C15 -25 C16 -92 C17 -66 C18 -165 C19 -51 C20 -176 C21 -23 C22 -75 C23 -39 C24 -157 C25 -C26 -46 C27
 -99 C28 +31 C71 +25 C72 +92 C73 +66 C74 +165 C75 +51 C76 +176 C77 +23 C78 +75 C79 +39 C80 +157 C81 +C82
 +46 C83 +99 C84 -C93 <= 0;
+31 C29 +25 C30 +92 C31 +66 C32 +165 C33 +51 C34 +176 C35 +23 C36 +75 C37 +39 C38 +157 C39 +C40 +46 C41
 +99 C42 -31 C43 -25 C44 -92 C45 -66 C46 -165 C47 -51 C48 -176 C49 -23 C50 -75 C51 -39 C52 -157 C53 -C54
 -46 C55 -99 C56 -C94 <= 0;
-31 C29 -25 C30 -92 C31 -66 C32 -165 C33 -51 C34 -176 C35 -23 C36 -75 C37 -39 C38 -157 C39 -C40 -46 C41
 -99 C42 +31 C43 +25 C44 +92 C45 +66 C46 +165 C47 +51 C48 +176 C49 +23 C50 +75 C51 +39 C52 +157 C53 +C54
 +46 C55 +99 C56 -C94 <= 0;
+31 C29 +25 C30 +92 C31 +66 C32 +165 C33 +51 C34 +176 C35 +23 C36 +75 C37 +39 C38 +157 C39 +C40 +46 C41
 +99 C42 -31 C57 -25 C58 -92 C59 -66 C60 -165 C61 -51 C62 -176 C63 -23 C64 -75 C65 -39 C66 -157 C67 -C68
 -46 C69 -99 C70 -C95 <= 0;
-31 C29 -25 C30 -92 C31 -66 C32 -165 C33 -51 C34 -176 C35 -23 C36 -75 C37 -39 C38 -157 C39 -C40 -46 C41
 -99 C42 +31 C57 +25 C58 +92 C59 +66 C60 +165 C61 +51 C62 +176 C63 +23 C64 +75 C65 +39 C66 +157 C67 +C68
 +46 C69 +99 C70 -C95 <= 0;
+31 C29 +25 C30 +92 C31 +66 C32 +165 C33 +51 C34 +176 C35 +23 C36 +75 C37 +39 C38 +157 C39 +C40 +46 C41
 +99 C42 -31 C71 -25 C72 -92 C73 -66 C74 -165 C75 -51 C76 -176 C77 -23 C78 -75 C79 -39 C80 -157 C81 -C82
 -46 C83 -99 C84 -C96 <= 0;
-31 C29 -25 C30 -92 C31 -66 C32 -165 C33 -51 C34 -176 C35 -23 C36 -75 C37 -39 C38 -157 C39 -C40 -46 C41
 -99 C42 +31 C71 +25 C72 +92 C73 +66 C74 +165 C75 +51 C76 +176 C77 +23 C78 +75 C79 +39 C80 +157 C81 +C82
 +46 C83 +99 C84 -C96 <= 0;
+31 C43 +25 C44 +92 C45 +66 C46 +165 C47 +51 C48 +176 C49 +23 C50 +75 C51 +39 C52 +157 C53 +C54 +46 C55
 +99 C56 -31 C57 -25 C58 -92 C59 -66 C60 -165 C61 -51 C62 -176 C63 -23 C64 -75 C65 -39 C66 -157 C67 -C68
 -46 C69 -99 C70 -C97 <= 0;
-31 C43 -25 C44 -92 C45 -66 C46 -165 C47 -51 C48 -176 C49 -23 C50 -75 C51 -39 C52 -157 C53 -C54 -46 C55
 -99 C56 +31 C57 +25 C58 +92 C59 +66 C60 +165 C61 +51 C62 +176 C63 +23 C64 +75 C65 +39 C66 +157 C67 +C68
 +46 C69 +99 C70 -C97 <= 0;
+31 C43 +25 C44 +92 C45 +66 C46 +165 C47 +51 C48 +176 C49 +23 C50 +75 C51 +39 C52 +157 C53 +C54 +46 C55
 +99 C56 -31 C71 -25 C72 -92 C73 -66 C74 -165 C75 -51 C76 -176 C77 -23 C78 -75 C79 -39 C80 -157 C81 -C82
 -46 C83 -99 C84 -C98 <= 0;
-31 C43 -25 C44 -92 C45 -66 C46 -165 C47 -51 C48 -176 C49 -23 C50 -75 C51 -39 C52 -157 C53 -C54 -46 C55
 -99 C56 +31 C71 +25 C72 +92 C73 +66 C74 +165 C75 +51 C76 +176 C77 +23 C78 +75 C79 +39 C80 +157 C81 +C82
 +46 C83 +99 C84 -C98 <= 0;
+31 C57 +25 C58 +92 C59 +66 C60 +165 C61 +51 C62 +176 C63 +23 C64 +75 C65 +39 C66 +157 C67 +C68 +46 C69
 +99 C70 -31 C71 -25 C72 -92 C73 -66 C74 -165 C75 -51 C76 -176 C77 -23 C78 -75 C79 -39 C80 -157 C81 -C82
 -46 C83 -99 C84 -C99 <= 0;
-31 C57 -25 C58 -92 C59 -66 C60 -165 C61 -51 C62 -176 C63 -23 C64 -75 C65 -39 C66 -157 C67 -C68 -46 C69
 -99 C70 +31 C71 +25 C72 +92 C73 +66 C74 +165 C75 +51 C76 +176 C77 +23 C78 +75 C79 +39 C80 +157 C81 +C82
 +46 C83 +99 C84 -C99 <= 0;

/* Variable bounds */
C1 <= 1;
C2 <= 1;
C3 <= 1;
C4 <= 1;
C5 <= 1;
C6 <= 1;
C7 <= 1;
C8 <= 1;
C9 <= 1;
C10 <= 1;
C11 <= 1;
C12 <= 1;
C13 <= 1;
C14 <= 1;
C15 <= 1;
C16 <= 1;
C17 <= 1;
C18 <= 1;
C19 <= 1;
C20 <= 1;
C21 <= 1;
C22 <= 1;
C23 <= 1;
C24 <= 1;
C25 <= 1;
C26 <= 1;
C27 <= 1;
C28 <= 1;
C29 <= 1;
C30 <= 1;
C31 <= 1;
C32 <= 1;
C33 <= 1;
C34 <= 1;
C35 <= 1;
C36 <= 1;
C37 <= 1;
C38 <= 1;
C39 <= 1;
C40 <= 1;
C41 <= 1;
C42 <= 1;
C43 <= 1;
C44 <= 1;
C45 <= 1;
C46 <= 1;
C47 <= 1;
C48 <= 1;
C49 <= 1;
C50 <= 1;
C51 <= 1;
C52 <= 1;
C53 <= 1;
C54 <= 1;
C55 <= 1;
C56 <= 1;
C57 <= 1;
C58 <= 1;
C59 <= 1;
C60 <= 1;
C61 <= 1;
C62 <= 1;
C63 <= 1;
C64 <= 1;
C65 <= 1;
C66 <= 1;
C67 <= 1;
C68 <= 1;
C69 <= 1;
C70 <= 1;
C71 <= 1;
C72 <= 1;
C73 <= 1;
C74 <= 1;
C75 <= 1;
C76 <= 1;
C77 <= 1;
C78 <= 1;
C79 <= 1;
C80 <= 1;
C81 <= 1;
C82 <= 1;
C83 <= 1;
C84 <= 1;

/* Integer definitions */
int C1,C2,C3,C4,C5,C6,C7,C8,C9,C10,C11,C12,C13,C14,C15,C16,C17,C18,C19,C20,C21,C22,C23,C24,C25,C26,C27,C28,C29,C30,C31,C32,C33,C34,C35,C36,C37,C38,C39,C40,C41,C42,C43,C44,C45,C46,C47,C48,C49,C50,C51,C52,C53,C54,C55,C56,C57,C58,C59,C60,C61,C62,C63,C64,C65,C66,C67,C68,C69,C70,C71,C72,C73,C74,C75,C76,C77,C78,C79,C80,C81,C82,C83,C84,C85,C86,C87,C88,C89,C90,C91,C92,C93,C94,C95,C96,C97,C98,C99;
